NAME: cities_5_18
TYPE: TSP
COMMENT: Generated from CSV
DIMENSION: 5
EDGE_WEIGHT_TYPE: EUC_2D
NODE_COORD_SECTION
1 85.26943585609985 24.857937372038
2 96.39162144495576 77.01182171859695
3 12.664196907864476 19.16564910519197
4 23.525593370169982 7.973609212958587
5 38.808915964585125 37.166541014015486
EOF
